benchmarks_vrp/CMT5/no_cluster/CMT5_16.vrp
NAME: CMT5_16
TYPE: CVRP
COMMENT: 1291.29 - Cluster Nr.16
DIMENSION: 8
CAPACITY: 200
EDGE_WEIGHT_TYPE: EUC_2D
NODE_COORD_TYPE: TWOD_COORDS
NODE_COORD_SECTION: 
5 45 65
8 49 73
4 40 66
6 62 77
2 35 35
1 43 67
7 47 66
3 37 69
DEPOT_SECTION: 
2
-1
DEMAND_SECTION: 
2 0
4 26
3 11
5 9
6 20
7 24
8 25
1 14
EOF
