benchmarks_vrp/CMT5/no_cluster/CMT5_16.tour
NAME: CMT5_16 solution
TYPE: TOUR
TOUR_SECTION:
2 3 4 1 8 6 7 5 -1
-1
EOF